
Gurobi 10.0.1 (linux64) logging started Tue May 23 23:16:55 2023

Set parameter LogFile to value "logFiles/N-1L-B/N-1L-13U-10F-23V-120D/basic-05-23-2023, 23-16-H70-P50-O15.log"
Gurobi Optimizer version 10.0.1 build v10.0.1rc0 (linux64)

CPU model: Intel(R) Xeon(R) Gold 5115 CPU @ 2.40GHz, instruction set [SSE2|AVX|AVX2|AVX512]
Thread count: 20 physical cores, 40 logical processors, using up to 20 threads

Optimize a model with 59682 rows, 924038 columns and 4819389 nonzeros
Model fingerprint: 0x8eaec22f
Variable types: 216034 continuous, 708004 integer (708004 binary)
Coefficient statistics:
  Matrix range     [1e+00, 2e+05]
  Objective range  [4e+01, 3e+07]
  Bounds range     [1e+00, 1e+00]
  RHS range        [1e+00, 1e+06]
Presolve removed 25033 rows and 40423 columns (presolve time = 5s) ...
Presolve removed 28360 rows and 53858 columns (presolve time = 10s) ...
Presolve removed 28360 rows and 53858 columns (presolve time = 15s) ...
Presolve removed 28360 rows and 53884 columns (presolve time = 20s) ...
Presolve removed 28360 rows and 53884 columns (presolve time = 25s) ...
Presolve removed 28360 rows and 53884 columns (presolve time = 30s) ...
Presolve removed 28493 rows and 58419 columns
Presolve time: 34.24s
Presolved: 31189 rows, 865619 columns, 4136254 nonzeros
Variable types: 207965 continuous, 657654 integer (657654 binary)
Deterministic concurrent LP optimizer: primal simplex, dual simplex, and barrier
Showing barrier log only...

Root barrier log...

Ordering time: 1.63s

Barrier statistics:
 AA' NZ     : 2.063e+06
 Factor NZ  : 7.421e+06 (roughly 400 MB of memory)
 Factor Ops : 1.104e+10 (less than 1 second per iteration)
 Threads    : 17

                  Objective                Residual
Iter       Primal          Dual         Primal    Dual     Compl     Time
   0  -1.68066066e+16  1.66897000e+13  1.05e+09 7.50e+06  1.17e+12    44s
   1  -5.03173264e+15  2.18401921e+13  3.16e+08 9.17e+06  3.56e+11    44s
   2  -8.86864721e+14  2.26987896e+13  5.59e+07 1.30e+06  6.43e+10    44s
   3  -4.86718657e+13  1.71333233e+13  3.08e+06 2.74e-08  3.63e+09    45s
   4  -5.49222940e+12  1.39748507e+13  3.47e+05 2.36e-08  4.17e+08    45s
   5  -2.69488393e+12  1.19337687e+13  1.70e+05 2.00e-08  2.06e+08    46s
   6  -1.87938427e+12  1.06181782e+13  1.19e+05 1.63e-08  1.45e+08    46s
   7  -6.33961200e+11  9.19040183e+12  4.01e+04 1.90e-08  5.11e+07    46s
   8  -3.17278173e+11  7.03927603e+12  2.01e+04 1.80e-08  2.54e+07    47s
   9  -2.93254219e+11  6.29612713e+12  1.86e+04 1.51e-08  2.27e+07    47s
  10  -8.87179980e+10  4.51473091e+12  5.69e+03 2.00e-08  7.96e+06    48s
  11  -4.17690728e+10  4.00677044e+12  2.73e+03 1.86e-08  4.80e+06    48s
  12  -3.21581739e+10  2.78782810e+12  2.13e+03 2.03e-08  3.36e+06    48s
  13  -1.81823400e+10  1.11049080e+12  1.25e+03 2.48e-08  1.49e+06    49s
  14  -3.38302015e+09  3.90733512e+11  3.20e+02 2.92e-08  4.06e+05    49s
  15   2.26173913e+08  1.16360553e+11  9.28e+01 3.63e-08  1.12e+05    49s
  16   2.94420570e+08  1.14063388e+11  8.86e+01 3.12e-08  1.09e+05    50s
  17   3.66421092e+08  1.03296136e+11  8.40e+01 7.58e-08  1.00e+05    50s
  18   1.02104780e+09  7.67908381e+10  4.32e+01 8.68e-08  6.43e+04    50s
  19   1.19216960e+09  5.72646734e+10  3.26e+01 1.33e-07  4.79e+04    51s
  20   1.29226361e+09  4.79959451e+10  2.66e+01 1.30e-07  3.97e+04    51s
  21   1.41037634e+09  4.21304401e+10  1.98e+01 1.84e-07  3.31e+04    52s
  22   1.45737893e+09  2.88410300e+10  1.72e+01 1.23e-07  2.45e+04    52s
  23   1.52923500e+09  2.38512669e+10  1.33e+01 1.30e-07  1.97e+04    53s
  24   1.54221650e+09  2.10264424e+10  1.27e+01 1.29e-07  1.78e+04    53s
  25   1.64669468e+09  1.71089340e+10  7.49e+00 2.05e-07  1.30e+04    54s
  26   1.68037958e+09  1.48161262e+10  6.07e+00 2.31e-07  1.09e+04    54s
  27   1.72099074e+09  1.35595658e+10  4.46e+00 1.81e-07  9.29e+03    55s
  28   1.74014099e+09  1.22445153e+10  3.81e+00 1.93e-07  8.18e+03    55s
  29   1.75162717e+09  1.03855198e+10  3.46e+00 1.91e-07  6.91e+03    56s
  30   1.76497045e+09  1.01768429e+10  3.23e+00 2.38e-07  6.65e+03    56s
  31   1.78313896e+09  8.48260834e+09  2.88e+00 2.32e-07  5.33e+03    57s
  32   1.81246050e+09  8.20545217e+09  2.43e+00 2.41e-07  4.90e+03    57s
  33   1.81985406e+09  6.26842217e+09  2.28e+00 2.40e-07  3.51e+03    58s
  34   1.86270004e+09  5.53395387e+09  1.64e+00 2.35e-07  2.73e+03    58s
  35   1.88357567e+09  4.32353918e+09  1.35e+00 2.11e-07  1.80e+03    59s
  36   1.91301075e+09  3.83813247e+09  9.26e-01 2.97e-07  1.35e+03    59s
  37   1.93665906e+09  3.68564593e+09  6.91e-01 2.09e-07  1.18e+03    60s
  38   1.93519228e+09  3.28729312e+09  6.83e-01 2.73e-07  9.26e+02    60s
  39   1.94810883e+09  2.87603877e+09  5.26e-01 2.52e-07  6.26e+02    61s
  40   1.96097449e+09  2.65378004e+09  3.73e-01 2.57e-07  4.55e+02    61s
  41   1.96819395e+09  2.48976197e+09  3.14e-01 1.92e-07  3.40e+02    62s
  42   1.97141431e+09  2.32860886e+09  2.89e-01 2.10e-07  2.34e+02    62s
  43   1.98471956e+09  2.26783226e+09  2.02e-01 2.70e-07  1.81e+02    63s
  44   1.99570868e+09  2.17616075e+09  1.45e-01 3.52e-07  1.15e+02    63s
  45   2.00403922e+09  2.17145104e+09  1.13e-01 2.51e-07  1.05e+02    64s
  46   2.01060398e+09  2.14144298e+09  8.60e-02 2.64e-07  8.15e+01    64s
  47   2.01374916e+09  2.13249291e+09  7.73e-02 2.69e-07  7.38e+01    65s
  48   2.01741517e+09  2.12870567e+09  6.73e-02 2.54e-07  6.87e+01    65s
  49   2.01829850e+09  2.12398876e+09  6.50e-02 2.50e-07  6.53e+01    66s
  50   2.02232063e+09  2.11819347e+09  5.51e-02 2.01e-07  5.89e+01    66s
  51   2.02553812e+09  2.11351172e+09  4.74e-02 2.97e-07  5.38e+01    67s
  52   2.03011463e+09  2.11089719e+09  3.66e-02 2.30e-07  4.90e+01    67s
  53   2.03101249e+09  2.10006162e+09  3.48e-02 2.65e-07  4.20e+01    68s
  54   2.03352341e+09  2.09684762e+09  3.06e-02 3.21e-07  3.84e+01    68s
  55   2.03580887e+09  2.09304660e+09  2.74e-02 2.92e-07  3.47e+01    69s
  56   2.03634317e+09  2.09150377e+09  2.65e-02 3.19e-07  3.34e+01    69s
  57   2.03713128e+09  2.08446487e+09  2.50e-02 2.65e-07  2.88e+01    70s
  58   2.03958635e+09  2.07974225e+09  2.13e-02 3.28e-07  2.44e+01    71s
  59   2.04164300e+09  2.07790361e+09  1.81e-02 2.99e-07  2.20e+01    71s
  60   2.04223414e+09  2.07683614e+09  1.74e-02 3.47e-07  2.10e+01    72s
  61   2.04418751e+09  2.07465139e+09  1.49e-02 2.56e-07  1.84e+01    72s
  62   2.04562482e+09  2.07169616e+09  1.32e-02 3.08e-07  1.58e+01    73s
  63   2.04701719e+09  2.06977363e+09  1.16e-02 1.93e-07  1.38e+01    73s
  64   2.04760046e+09  2.06900808e+09  1.10e-02 2.10e-07  1.30e+01    74s
  65   2.04898380e+09  2.06888469e+09  9.65e-03 2.11e-07  1.20e+01    74s
  66   2.05034475e+09  2.06770163e+09  8.46e-03 2.63e-07  1.05e+01    75s
  67   2.05311929e+09  2.06695633e+09  6.02e-03 3.67e-07  8.32e+00    75s
  68   2.05498607e+09  2.06543563e+09  4.53e-03 2.68e-07  6.28e+00    76s
  69   2.05681123e+09  2.06455989e+09  3.14e-03 2.81e-07  4.65e+00    76s
  70   2.05810472e+09  2.06347564e+09  2.17e-03 2.11e-07  3.22e+00    77s
  71   2.05870032e+09  2.06312938e+09  1.74e-03 1.88e-07  2.66e+00    77s
  72   2.05922113e+09  2.06253417e+09  1.37e-03 3.01e-07  1.99e+00    78s
  73   2.05990514e+09  2.06217080e+09  9.01e-04 2.35e-07  1.36e+00    79s
  74   2.06039350e+09  2.06171362e+09  5.72e-04 2.76e-07  7.95e-01    79s
  75   2.06062344e+09  2.06135340e+09  4.10e-04 2.44e-07  4.45e-01    80s
  76   2.06102642e+09  2.06131906e+09  1.33e-04 1.81e-07  1.77e-01    80s
  77   2.06108201e+09  2.06129284e+09  9.97e-05 2.16e-07  1.28e-01    80s
  78   2.06121788e+09  2.06125972e+09  1.59e-05 3.10e-07  2.50e-02    81s
  79   2.06124490e+09  2.06125025e+09  6.81e-07 2.24e-07  3.13e-03    81s
  80   2.06124593e+09  2.06124729e+09  2.44e-07 1.86e-07  8.03e-04    82s
  81   2.06124634e+09  2.06124655e+09  8.32e-08 3.56e-07  1.20e-04    82s
  82   2.06124646e+09  2.06124647e+09  1.36e-08 2.48e-07  6.23e-06    82s
  83   2.06124647e+09  2.06124647e+09  1.67e-07 3.00e-07  8.54e-08    83s
  84   2.06124647e+09  2.06124647e+09  3.47e-10 3.58e-07  1.27e-10    83s

Barrier solved model in 84 iterations and 83.21 seconds (78.71 work units)
Optimal objective 2.06124647e+09


Root crossover log...

   26962 DPushes remaining with DInf 0.0000000e+00                83s
       0 DPushes remaining with DInf 0.0000000e+00                84s

     961 PPushes remaining with PInf 1.8574768e-06                84s
       0 PPushes remaining with PInf 0.0000000e+00                84s

  Push phase complete: Pinf 0.0000000e+00, Dinf 6.3806522e-08     84s


Root simplex log...

Iteration    Objective       Primal Inf.    Dual Inf.      Time
   27818    2.0612465e+09   0.000000e+00   0.000000e+00     84s
Concurrent spin time: 0.02s

Solved with barrier
   27864    2.0612465e+09   0.000000e+00   0.000000e+00     84s
Extra simplex iterations after uncrush: 46

Root relaxation: objective 2.061246e+09, 27864 iterations, 46.76 seconds (31.98 work units)
Total elapsed time = 85.34s

    Nodes    |    Current Node    |     Objective Bounds      |     Work
 Expl Unexpl |  Obj  Depth IntInf | Incumbent    BestBd   Gap | It/Node Time

     0     0 2.0612e+09    0  216          - 2.0612e+09      -     -   88s
H    0     0                    2.044037e+09 2.0612e+09  0.84%     -  100s

Explored 1 nodes (34374 simplex iterations) in 100.26 seconds (89.31 work units)
Thread count was 20 (of 40 available processors)

Solution count 1: 2.04404e+09 

Optimal solution found (tolerance 1.00e-02)
Best objective 2.044037031233e+09, best bound 2.061246466620e+09, gap 0.8419%
Gurobi Optimizer version 10.0.1 build v10.0.1rc0 (linux64)

CPU model: Intel(R) Xeon(R) Gold 5115 CPU @ 2.40GHz, instruction set [SSE2|AVX|AVX2|AVX512]
Thread count: 20 physical cores, 40 logical processors, using up to 20 threads

Optimize a model with 59125 rows, 937116 columns and 4469689 nonzeros
Model fingerprint: 0x34612977
Variable types: 1879 continuous, 935237 integer (935237 binary)
Coefficient statistics:
  Matrix range     [1e+00, 2e+05]
  Objective range  [4e+01, 3e+07]
  Bounds range     [1e+00, 3e+05]
  RHS range        [1e+00, 1e+06]
Presolve removed 56400 rows and 903422 columns
Presolve time: 1.93s
Presolved: 2725 rows, 33694 columns, 129024 nonzeros
Variable types: 552 continuous, 33142 integer (33127 binary)
Found heuristic solution: objective 2.129374e+09
Deterministic concurrent LP optimizer: primal and dual simplex
Showing first log only...

Concurrent spin time: 0.06s

Solved with primal simplex
Extra simplex iterations after uncrush: 233

Root relaxation: objective 2.582276e+09, 11205 iterations, 0.36 seconds (0.30 work units)

    Nodes    |    Current Node    |     Objective Bounds      |     Work
 Expl Unexpl |  Obj  Depth IntInf | Incumbent    BestBd   Gap | It/Node Time

     0     0 2.5823e+09    0   24 2.1294e+09 2.5823e+09  21.3%     -    2s
H    0     0                    2.574093e+09 2.5823e+09  0.32%     -    2s

Explored 1 nodes (11279 simplex iterations) in 3.02 seconds (2.55 work units)
Thread count was 20 (of 40 available processors)

Solution count 2: 2.57409e+09 2.12937e+09 

Optimal solution found (tolerance 1.00e-02)
Best objective 2.574093354302e+09, best bound 2.582275515095e+09, gap 0.3179%
